peakDumbCharging = 25900; 
Machine = anon_enum(16); 
machineSpeed = [3700,3700,3700,3700,3700,3700,3700,3700,3700,3700,3700,3700,3700,3700,3700,3700]; 
machineLoad = [3700,3700,3700,3700,3700,3700,3700,3700,3700,3700,3700,3700,3700,3700,3700,3700]; 
Car = anon_enum(34); 
demandCar = [10880,12560,2800,9640,5440,12720,5760,3200,4480,10120,3000,3920,32480,12200,13880,18720,9480,8000,4560,7280,3240,5000,1920,6120,8520,5040,3240,31120,8120,8000,32720,5000,9760,360]; 
arrivalCar = [63,63,62,60,60,59,59,57,56,55,55,54,54,53,50,48,46,45,45,44,41,40,40,40,38,37,35,34,34,34,34,34,28,24]; 
departureCar = [68,68,64,64,64,64,62,59,59,60,57,57,65,59,56,54,50,48,48,47,43,44,42,43,42,41,38,47,40,39,52,39,32,25]; 
